ISMEAR = -1
SIGMA = 0.03

NPAR = 36
KPAR = 4

ENCUT = 300

NBANDS = 144

EMIN = -6.5
EMAX = 38.512
NEDOS = 6001
