0              ! number of k-points = 0 ->automatic generation scheme 
G          ! generate a Gamma centered grid
150 150 150    ! subdivisions N_1, N_2 and N_3 along recipr. l. vectors
0. 0. 0.       ! optional shift of the mesh (s_1, s_2, s_3)
