fcc
   3.52
 0.0 1.0 1.0
 1.0 0.0 1.0
 1.0 1.0 0.0
 8
D
0.0 0.0 0.0
0.5 0.0 0.0
0.0 0.5 0.0
0.0 0.0 0.5
0.0 0.5 0.5
0.5 0.0 0.5
0.5 0.5 0.0
0.5 0.5 0.5
